1947, 0, 0, 71, 2
1948, 0, 1, 38, 3
1949, 0, 2, 98, 1
1950, 0, 3, 30, 0
1951, 1, 0, 39, 2
1952, 1, 1, 42, 1
1953, 1, 2, 88, 3
1954, 1, 3, 38, 0
1955, 2, 0, 77, 1
1956, 2, 1, 45, 3
1957, 2, 2, 75, 2
1958, 2, 3, 62, 0
1959, 3, 0, 86, 2
1960, 3, 1, 32, 1
1961, 3, 2, 71, 3
1962, 3, 3, 63, 0
